NAME : kroC100-R-5-3-a.25458.tour
COMMENT : Length = 25458
COMMENT : Found by LKH-3 [Keld Helsgaun] Tue Jul 30 13:14:56 2024
TYPE : TOUR
DIMENSION : 100
TOUR_SECTION
1
53
27
13
79
64
20
42
55
67
31
65
80
77
60
4
93
49
18
29
37
61
7
82
78
51
44
66
19
92
10
99
14
36
57
74
3
73
21
23
70
76
91
94
95
86
71
17
25
90
34
58
98
88
28
39
38
56
43
5
50
72
83
62
22
8
75
47
6
54
2
35
68
30
89
41
59
69
100
33
45
81
97
96
87
52
11
84
48
63
16
9
26
32
24
46
12
40
15
85
-1
EOF
